Restricted license - for non-production use only - expires 2027-11-29
------------------Gurobi Log------------------
Gurobi Optimizer version 13.0.1 build v13.0.1rc0 (linux64 - "Debian GNU/Linux 12 (bookworm)")

CPU model: AMD EPYC 7B12, instruction set [SSE2|AVX|AVX2]
Thread count: 4 physical cores, 8 logical processors, using up to 8 threads

Optimize a model with 769 rows, 320 columns and 13246 nonzeros (Min)
Model fingerprint: 0x0d266e54
Model has 0 linear objective coefficients
Variable types: 0 continuous, 320 integer (320 binary)
Coefficient statistics:
  Matrix range     [1e+00, 1e+00]
  Objective range  [0e+00, 0e+00]
  Bounds range     [1e+00, 1e+00]
  RHS range        [1e+00, 2e+01]

Presolve time: 0.01s
Presolved: 769 rows, 320 columns, 13246 nonzeros
Variable types: 0 continuous, 320 integer (320 binary)

Root relaxation: objective 0.000000e+00, 335 iterations, 0.01 seconds (0.01 work units)

    Nodes    |    Current Node    |     Objective Bounds      |     Work
 Expl Unexpl |  Obj  Depth IntInf | Incumbent    BestBd   Gap | It/Node Time

*    0     0               0       0.0000000    0.00000  0.00%     -    0s

Explored 1 nodes (335 simplex iterations) in 0.03 seconds (0.03 work units)
Thread count was 8 (of 8 available processors)

Solution count 1: 0 

Optimal solution found (tolerance 1.00e-04)
Best objective 0.000000000000e+00, best bound 0.000000000000e+00, gap 0.0000%
------------------Specifications------------------
Processing Time     : 0.012 seconds
Optimization Time   : 0.026 seconds
Total Time          : 0.038 seconds
Memory Usaged       : 13.50 MB
------------------Verifying solution------------------
All constraints are satisfied.
------------------Schedule------------------
Nurse 0: 0 0 1 1 3 3 0 0 1 3 2 1 3 0 0 0 1 1 3 3 0 1 0 3 2 1 3 1 0 0 0 1 3 3 2 1 0 3 1 1 3 0 2 0 1 0 3 3 1 0 1 3 1 0 3 2 0 0 1 1 3 3 0 2 1 3 1 0 3 0 2 1 0 1 3 3 0 1 0 3
